50
18336

294 610
466 972
461 366
788 665
32 719
294 692
64 191
899 68
617 728
628 825
653 107
296 153
171 57
248 267
799 239
37 32
440 427
320 931
860 18
150 61
600 645
859 416
265 692
483 16
166 822
116 404
156 72
740 988
505 151
173 230
193 648
730 775
530 742
429 295
902 812
754 449
86 72
128 633
735 660
669 88
727 232
363 367
845 3
70 653
96 726
163 627
458 307
452 665
895 8
606 588
